(set-logic QF_NRA)
(set-info :source |
SMT script generated by Ultimate Automizer [1,2].
Ultimate Automizer is a software verifier for C programs that implements an
automata-based approach [3].
The commands in this SMT scripts are used for a constraint-based synthesis
of invariants [4].

2016-04-30, Matthias Heizmann (heizmann@informatik.uni-freiburg.de)


[1] http://http://ultimate.informatik.uni-freiburg.de/automizer/
[2] Matthias Heizmann, Daniel Dietsch, Marius Greitschus, Jan Leike,
Betim Musa, Claus Schätzle, Andreas Podelski: Ultimate Automizer with
Two-track Proofs - (Competition Contribution). TACAS 2016: 950-953
[3] Matthias Heizmann, Jochen Hoenicke, Andreas Podelski: Software Model
Checking for People Who Love Automata. CAV 2013:36-52
[4] Michael Colon, Sriram Sankaranarayanan, Henny Sipma: Linear Invariant
Generation Using Non-linear Constraint Solving. CAV 2003: 420-432

|)
(set-info :smt-lib-version 2.5)
(set-info :category "industrial")
(set-info :status sat)
(declare-fun liipp_0_c () Real)
(declare-fun liipp_0__ULTIMATE.start_nondet_~x~1 () Real)
(declare-fun |liipp_0__ULTIMATE.start_main_#t~ret0| () Real)
(declare-fun |liipp_0__ULTIMATE.start_main_#res| () Real)
(declare-fun |liipp_0__ULTIMATE.start_nondet_#res| () Real)
(declare-fun liipp_0__ULTIMATE.start_main_~y~2 () Real)
(declare-fun liipp_0__ULTIMATE.start_main_~x~2 () Real)
(declare-fun liipp_1_c () Real)
(declare-fun liipp_1__ULTIMATE.start_nondet_~x~1 () Real)
(declare-fun |liipp_1__ULTIMATE.start_main_#t~ret0| () Real)
(declare-fun |liipp_1__ULTIMATE.start_main_#res| () Real)
(declare-fun |liipp_1__ULTIMATE.start_nondet_#res| () Real)
(declare-fun liipp_1__ULTIMATE.start_main_~y~2 () Real)
(declare-fun liipp_1__ULTIMATE.start_main_~x~2 () Real)
(declare-fun liipp_2_c () Real)
(declare-fun liipp_2__ULTIMATE.start_nondet_~x~1 () Real)
(declare-fun |liipp_2__ULTIMATE.start_main_#t~ret0| () Real)
(declare-fun |liipp_2__ULTIMATE.start_main_#res| () Real)
(declare-fun |liipp_2__ULTIMATE.start_nondet_#res| () Real)
(declare-fun liipp_2__ULTIMATE.start_main_~y~2 () Real)
(declare-fun liipp_2__ULTIMATE.start_main_~x~2 () Real)
(declare-fun liipp_3_c () Real)
(declare-fun liipp_3__ULTIMATE.start_nondet_~x~1 () Real)
(declare-fun |liipp_3__ULTIMATE.start_main_#t~ret0| () Real)
(declare-fun |liipp_3__ULTIMATE.start_main_#res| () Real)
(declare-fun |liipp_3__ULTIMATE.start_nondet_#res| () Real)
(declare-fun liipp_3__ULTIMATE.start_main_~y~2 () Real)
(declare-fun liipp_3__ULTIMATE.start_main_~x~2 () Real)
(declare-fun liipp_4_c () Real)
(declare-fun liipp_4__ULTIMATE.start_nondet_~x~1 () Real)
(declare-fun |liipp_4__ULTIMATE.start_main_#t~ret0| () Real)
(declare-fun |liipp_4__ULTIMATE.start_main_#res| () Real)
(declare-fun |liipp_4__ULTIMATE.start_nondet_#res| () Real)
(declare-fun liipp_4__ULTIMATE.start_main_~y~2 () Real)
(declare-fun liipp_4__ULTIMATE.start_main_~x~2 () Real)
(declare-fun liipp_5_c () Real)
(declare-fun liipp_5__ULTIMATE.start_nondet_~x~1 () Real)
(declare-fun |liipp_5__ULTIMATE.start_main_#t~ret0| () Real)
(declare-fun |liipp_5__ULTIMATE.start_main_#res| () Real)
(declare-fun |liipp_5__ULTIMATE.start_nondet_#res| () Real)
(declare-fun liipp_5__ULTIMATE.start_main_~y~2 () Real)
(declare-fun liipp_5__ULTIMATE.start_main_~x~2 () Real)
(declare-fun liipp_6_c () Real)
(declare-fun liipp_6__ULTIMATE.start_nondet_~x~1 () Real)
(declare-fun |liipp_6__ULTIMATE.start_main_#t~ret0| () Real)
(declare-fun |liipp_6__ULTIMATE.start_main_#res| () Real)
(declare-fun |liipp_6__ULTIMATE.start_nondet_#res| () Real)
(declare-fun liipp_6__ULTIMATE.start_main_~y~2 () Real)
(declare-fun liipp_6__ULTIMATE.start_main_~x~2 () Real)
(declare-fun liipp_7_c () Real)
(declare-fun liipp_7__ULTIMATE.start_nondet_~x~1 () Real)
(declare-fun |liipp_7__ULTIMATE.start_main_#t~ret0| () Real)
(declare-fun |liipp_7__ULTIMATE.start_main_#res| () Real)
(declare-fun |liipp_7__ULTIMATE.start_nondet_#res| () Real)
(declare-fun liipp_7__ULTIMATE.start_main_~y~2 () Real)
(declare-fun liipp_7__ULTIMATE.start_main_~x~2 () Real)
(declare-fun liipp_8_c () Real)
(declare-fun liipp_8__ULTIMATE.start_nondet_~x~1 () Real)
(declare-fun |liipp_8__ULTIMATE.start_main_#t~ret0| () Real)
(declare-fun |liipp_8__ULTIMATE.start_main_#res| () Real)
(declare-fun |liipp_8__ULTIMATE.start_nondet_#res| () Real)
(declare-fun liipp_8__ULTIMATE.start_main_~y~2 () Real)
(declare-fun liipp_8__ULTIMATE.start_main_~x~2 () Real)
(declare-fun liipp_9_c () Real)
(declare-fun liipp_9__ULTIMATE.start_nondet_~x~1 () Real)
(declare-fun |liipp_9__ULTIMATE.start_main_#t~ret0| () Real)
(declare-fun |liipp_9__ULTIMATE.start_main_#res| () Real)
(declare-fun |liipp_9__ULTIMATE.start_nondet_#res| () Real)
(declare-fun liipp_9__ULTIMATE.start_main_~y~2 () Real)
(declare-fun liipp_9__ULTIMATE.start_main_~x~2 () Real)
(declare-fun liipp_10_c () Real)
(declare-fun liipp_10__ULTIMATE.start_nondet_~x~1 () Real)
(declare-fun |liipp_10__ULTIMATE.start_main_#t~ret0| () Real)
(declare-fun |liipp_10__ULTIMATE.start_main_#res| () Real)
(declare-fun |liipp_10__ULTIMATE.start_nondet_#res| () Real)
(declare-fun liipp_10__ULTIMATE.start_main_~y~2 () Real)
(declare-fun liipp_10__ULTIMATE.start_main_~x~2 () Real)
(declare-fun liipp_11_c () Real)
(declare-fun liipp_11__ULTIMATE.start_nondet_~x~1 () Real)
(declare-fun |liipp_11__ULTIMATE.start_main_#t~ret0| () Real)
(declare-fun |liipp_11__ULTIMATE.start_main_#res| () Real)
(declare-fun |liipp_11__ULTIMATE.start_nondet_#res| () Real)
(declare-fun liipp_11__ULTIMATE.start_main_~y~2 () Real)
(declare-fun liipp_11__ULTIMATE.start_main_~x~2 () Real)
(declare-fun liipp_12_replace_0 () Real)
(declare-fun liipp_12_replace_1 () Real)
(declare-fun liipp_12_replace_2 () Real)
(declare-fun liipp_12_replace_3 () Real)
(declare-fun liipp_12_replace_4 () Real)
(declare-fun liipp_12_replace_5 () Real)
(declare-fun liipp_13_replace_0 () Real)
(declare-fun liipp_13_replace_1 () Real)
(declare-fun liipp_13_replace_2 () Real)
(declare-fun liipp_13_replace_3 () Real)
(declare-fun liipp_13_replace_4 () Real)
(declare-fun liipp_13_replace_5 () Real)
(declare-fun liipp_14_replace_0 () Real)
(declare-fun liipp_14_replace_1 () Real)
(declare-fun motzkin_5454_0 () Real)
(declare-fun motzkin_5454_1 () Real)
(declare-fun motzkin_5454_2 () Real)
(declare-fun motzkin_5454_3 () Real)
(declare-fun motzkin_5454_4 () Real)
(declare-fun motzkin_5455_0 () Real)
(declare-fun motzkin_5455_1 () Real)
(declare-fun motzkin_5455_2 () Real)
(declare-fun motzkin_5455_3 () Real)
(declare-fun motzkin_5455_4 () Real)
(assert (and (>= motzkin_5454_0 0.0) (>= motzkin_5454_1 0.0) (>= motzkin_5454_2 0.0) (>= motzkin_5454_3 0.0) (>= motzkin_5454_4 0.0) (= (+ (* motzkin_5454_0 (- 1.0)) motzkin_5454_1 (* motzkin_5454_4 (+ (* (- 1.0) liipp_8__ULTIMATE.start_main_~y~2) 0.0))) 0.0) (= (+ (* motzkin_5454_2 (- 1.0)) motzkin_5454_3 (* motzkin_5454_4 (+ (* (- 1.0) liipp_8__ULTIMATE.start_main_~x~2) 0.0))) 0.0) (= (* motzkin_5454_4 (+ (* (- 1.0) liipp_8__ULTIMATE.start_nondet_~x~1) 0.0)) 0.0) (= (* motzkin_5454_4 (+ (* (- 1.0) |liipp_8__ULTIMATE.start_main_#t~ret0|) 0.0)) 0.0) (= (* motzkin_5454_4 (+ (* (- 1.0) |liipp_8__ULTIMATE.start_nondet_#res|) 0.0)) 0.0) (= (* motzkin_5454_4 (+ (* (- 1.0) |liipp_8__ULTIMATE.start_main_#res|) 0.0)) 0.0) (<= (* motzkin_5454_4 (+ (* (- 1.0) liipp_8_c) 0.0)) 0.0) (or (< (* motzkin_5454_4 (+ (* (- 1.0) liipp_8_c) 0.0)) 0.0) (> 0.0 0.0)) (>= motzkin_5455_0 0.0) (>= motzkin_5455_1 0.0) (>= motzkin_5455_2 0.0) (>= motzkin_5455_3 0.0) (>= motzkin_5455_4 0.0) (= (+ (* motzkin_5455_0 (- 1.0)) motzkin_5455_1 (* motzkin_5455_4 (+ (* (- 1.0) liipp_9__ULTIMATE.start_main_~y~2) 0.0))) 0.0) (= (+ (* motzkin_5455_2 (- 1.0)) motzkin_5455_3 (* motzkin_5455_4 (+ (* (- 1.0) liipp_9__ULTIMATE.start_main_~x~2) 0.0))) 0.0) (= (* motzkin_5455_4 (+ (* (- 1.0) liipp_9__ULTIMATE.start_nondet_~x~1) 0.0)) 0.0) (= (* motzkin_5455_4 (+ (* (- 1.0) |liipp_9__ULTIMATE.start_main_#t~ret0|) 0.0)) 0.0) (= (* motzkin_5455_4 (+ (* (- 1.0) |liipp_9__ULTIMATE.start_nondet_#res|) 0.0)) 0.0) (= (* motzkin_5455_4 (+ (* (- 1.0) |liipp_9__ULTIMATE.start_main_#res|) 0.0)) 0.0) (<= (* motzkin_5455_4 (+ (* (- 1.0) liipp_9_c) 0.0)) 0.0) (or (< 0.0 0.0) (> motzkin_5455_4 0.0))))
(declare-fun liipp_15_replace_0 () Real)
(declare-fun liipp_15_replace_1 () Real)
(declare-fun liipp_15_replace_2 () Real)
(declare-fun liipp_15_replace_3 () Real)
(declare-fun liipp_15_replace_4 () Real)
(declare-fun liipp_15_replace_5 () Real)
(declare-fun motzkin_5456_0 () Real)
(declare-fun motzkin_5456_1 () Real)
(declare-fun motzkin_5456_2 () Real)
(declare-fun motzkin_5456_3 () Real)
(declare-fun motzkin_5457_0 () Real)
(declare-fun motzkin_5457_1 () Real)
(declare-fun motzkin_5457_2 () Real)
(declare-fun motzkin_5457_3 () Real)
(assert (and (>= motzkin_5456_0 0.0) (>= motzkin_5456_1 0.0) (>= motzkin_5456_2 0.0) (>= motzkin_5456_3 0.0) (= (+ (* motzkin_5456_1 (+ (* (- 1.0) liipp_2__ULTIMATE.start_nondet_~x~1) 0.0)) (* motzkin_5456_2 (+ (* 1.0 liipp_8__ULTIMATE.start_nondet_~x~1) 0.0)) (* motzkin_5456_3 (+ (* 1.0 liipp_9__ULTIMATE.start_nondet_~x~1) 0.0))) 0.0) (= (+ (* motzkin_5456_1 (+ (* (- 1.0) |liipp_2__ULTIMATE.start_main_#t~ret0|) 0.0)) (* motzkin_5456_2 (+ (* 1.0 |liipp_8__ULTIMATE.start_main_#t~ret0|) 0.0)) (* motzkin_5456_3 (+ (* 1.0 |liipp_9__ULTIMATE.start_main_#t~ret0|) 0.0))) 0.0) (= (+ (* motzkin_5456_1 (+ (* (- 1.0) |liipp_2__ULTIMATE.start_main_#res|) 0.0)) (* motzkin_5456_2 (+ (* 1.0 |liipp_8__ULTIMATE.start_main_#res|) 0.0)) (* motzkin_5456_3 (+ (* 1.0 |liipp_9__ULTIMATE.start_main_#res|) 0.0))) 0.0) (= (+ (* motzkin_5456_1 (+ (* (- 1.0) |liipp_2__ULTIMATE.start_nondet_#res|) 0.0)) (* motzkin_5456_2 (+ (* 1.0 |liipp_8__ULTIMATE.start_nondet_#res|) 0.0)) (* motzkin_5456_3 (+ (* 1.0 |liipp_9__ULTIMATE.start_nondet_#res|) 0.0))) 0.0) (= (+ (* motzkin_5456_1 (+ (* (- 1.0) liipp_2__ULTIMATE.start_main_~y~2) 0.0)) (* motzkin_5456_2 (+ (* 1.0 liipp_8__ULTIMATE.start_main_~y~2) 0.0)) (* motzkin_5456_3 (+ (* 1.0 liipp_9__ULTIMATE.start_main_~y~2) 0.0))) 0.0) (= (+ (* motzkin_5456_1 (+ (* (- 1.0) liipp_2__ULTIMATE.start_main_~x~2) 0.0)) (* motzkin_5456_2 (+ (* 1.0 liipp_8__ULTIMATE.start_main_~x~2) 0.0)) (* motzkin_5456_3 (+ (* 1.0 liipp_9__ULTIMATE.start_main_~x~2) 0.0))) 0.0) (<= (+ (* motzkin_5456_1 (+ (* (- 1.0) liipp_2_c) 0.0)) (* motzkin_5456_2 (+ (* 1.0 liipp_8_c) 0.0)) (* motzkin_5456_3 (+ (* 1.0 liipp_9_c) 0.0))) 0.0) (or (< (+ (* motzkin_5456_1 (+ (* (- 1.0) liipp_2_c) 0.0)) (* motzkin_5456_3 (+ (* 1.0 liipp_9_c) 0.0))) 0.0) (> motzkin_5456_2 0.0)) (>= motzkin_5457_0 0.0) (>= motzkin_5457_1 0.0) (>= motzkin_5457_2 0.0) (>= motzkin_5457_3 0.0) (= (+ (* motzkin_5457_1 (+ (* (- 1.0) liipp_3__ULTIMATE.start_nondet_~x~1) 0.0)) (* motzkin_5457_2 (+ (* 1.0 liipp_8__ULTIMATE.start_nondet_~x~1) 0.0)) (* motzkin_5457_3 (+ (* 1.0 liipp_9__ULTIMATE.start_nondet_~x~1) 0.0))) 0.0) (= (+ (* motzkin_5457_1 (+ (* (- 1.0) |liipp_3__ULTIMATE.start_main_#t~ret0|) 0.0)) (* motzkin_5457_2 (+ (* 1.0 |liipp_8__ULTIMATE.start_main_#t~ret0|) 0.0)) (* motzkin_5457_3 (+ (* 1.0 |liipp_9__ULTIMATE.start_main_#t~ret0|) 0.0))) 0.0) (= (+ (* motzkin_5457_1 (+ (* (- 1.0) |liipp_3__ULTIMATE.start_main_#res|) 0.0)) (* motzkin_5457_2 (+ (* 1.0 |liipp_8__ULTIMATE.start_main_#res|) 0.0)) (* motzkin_5457_3 (+ (* 1.0 |liipp_9__ULTIMATE.start_main_#res|) 0.0))) 0.0) (= (+ (* motzkin_5457_1 (+ (* (- 1.0) |liipp_3__ULTIMATE.start_nondet_#res|) 0.0)) (* motzkin_5457_2 (+ (* 1.0 |liipp_8__ULTIMATE.start_nondet_#res|) 0.0)) (* motzkin_5457_3 (+ (* 1.0 |liipp_9__ULTIMATE.start_nondet_#res|) 0.0))) 0.0) (= (+ (* motzkin_5457_1 (+ (* (- 1.0) liipp_3__ULTIMATE.start_main_~y~2) 0.0)) (* motzkin_5457_2 (+ (* 1.0 liipp_8__ULTIMATE.start_main_~y~2) 0.0)) (* motzkin_5457_3 (+ (* 1.0 liipp_9__ULTIMATE.start_main_~y~2) 0.0))) 0.0) (= (+ (* motzkin_5457_1 (+ (* (- 1.0) liipp_3__ULTIMATE.start_main_~x~2) 0.0)) (* motzkin_5457_2 (+ (* 1.0 liipp_8__ULTIMATE.start_main_~x~2) 0.0)) (* motzkin_5457_3 (+ (* 1.0 liipp_9__ULTIMATE.start_main_~x~2) 0.0))) 0.0) (<= (+ (* motzkin_5457_1 (+ (* (- 1.0) liipp_3_c) 0.0)) (* motzkin_5457_2 (+ (* 1.0 liipp_8_c) 0.0)) (* motzkin_5457_3 (+ (* 1.0 liipp_9_c) 0.0))) 0.0) (or (< (* motzkin_5457_3 (+ (* 1.0 liipp_9_c) 0.0)) 0.0) (> (+ motzkin_5457_1 motzkin_5457_2) 0.0))))
(declare-fun liipp_16_replace_0 () Real)
(declare-fun liipp_16_replace_1 () Real)
(declare-fun liipp_16_replace_2 () Real)
(declare-fun liipp_16_replace_3 () Real)
(declare-fun motzkin_5458_0 () Real)
(declare-fun motzkin_5458_1 () Real)
(declare-fun motzkin_5458_2 () Real)
(declare-fun motzkin_5458_3 () Real)
(declare-fun motzkin_5458_4 () Real)
(declare-fun motzkin_5459_0 () Real)
(declare-fun motzkin_5459_1 () Real)
(declare-fun motzkin_5459_2 () Real)
(declare-fun motzkin_5459_3 () Real)
(declare-fun motzkin_5459_4 () Real)
(assert (and (>= motzkin_5458_0 0.0) (>= motzkin_5458_1 0.0) (>= motzkin_5458_2 0.0) (>= motzkin_5458_3 0.0) (>= motzkin_5458_4 0.0) (= (+ motzkin_5458_0 (* motzkin_5458_1 (- 1.0)) (* motzkin_5458_2 (+ (* (- 1.0) |liipp_10__ULTIMATE.start_nondet_#res|) 0.0))) 0.0) (= (+ (* motzkin_5458_0 (- 1.0)) motzkin_5458_1 (* motzkin_5458_2 (+ (* (- 1.0) liipp_10__ULTIMATE.start_nondet_~x~1) 0.0))) 0.0) (= (+ (* motzkin_5458_2 (+ (* (- 1.0) |liipp_10__ULTIMATE.start_main_#t~ret0|) 0.0)) (* motzkin_5458_3 (+ (* 1.0 |liipp_2__ULTIMATE.start_main_#t~ret0|) 0.0)) (* motzkin_5458_4 (+ (* 1.0 |liipp_3__ULTIMATE.start_main_#t~ret0|) 0.0))) 0.0) (= (+ (* motzkin_5458_2 (+ (* (- 1.0) |liipp_10__ULTIMATE.start_main_#res|) 0.0)) (* motzkin_5458_3 (+ (* 1.0 |liipp_2__ULTIMATE.start_main_#res|) 0.0)) (* motzkin_5458_4 (+ (* 1.0 |liipp_3__ULTIMATE.start_main_#res|) 0.0))) 0.0) (= (+ (* motzkin_5458_2 (+ (* (- 1.0) liipp_10__ULTIMATE.start_main_~y~2) 0.0)) (* motzkin_5458_3 (+ (* 1.0 liipp_2__ULTIMATE.start_main_~y~2) 0.0)) (* motzkin_5458_4 (+ (* 1.0 liipp_3__ULTIMATE.start_main_~y~2) 0.0))) 0.0) (= (+ (* motzkin_5458_2 (+ (* (- 1.0) liipp_10__ULTIMATE.start_main_~x~2) 0.0)) (* motzkin_5458_3 (+ (* 1.0 liipp_2__ULTIMATE.start_main_~x~2) 0.0)) (* motzkin_5458_4 (+ (* 1.0 liipp_3__ULTIMATE.start_main_~x~2) 0.0))) 0.0) (= (+ (* motzkin_5458_3 (+ (* 1.0 liipp_2__ULTIMATE.start_nondet_~x~1) 0.0)) (* motzkin_5458_4 (+ (* 1.0 liipp_3__ULTIMATE.start_nondet_~x~1) 0.0))) 0.0) (= (+ (* motzkin_5458_3 (+ (* 1.0 |liipp_2__ULTIMATE.start_nondet_#res|) 0.0)) (* motzkin_5458_4 (+ (* 1.0 |liipp_3__ULTIMATE.start_nondet_#res|) 0.0))) 0.0) (<= (+ (* motzkin_5458_2 (+ (* (- 1.0) liipp_10_c) 0.0)) (* motzkin_5458_3 (+ (* 1.0 liipp_2_c) 0.0)) (* motzkin_5458_4 (+ (* 1.0 liipp_3_c) 0.0))) 0.0) (or (< (+ (* motzkin_5458_2 (+ (* (- 1.0) liipp_10_c) 0.0)) (* motzkin_5458_4 (+ (* 1.0 liipp_3_c) 0.0))) 0.0) (> motzkin_5458_3 0.0)) (>= motzkin_5459_0 0.0) (>= motzkin_5459_1 0.0) (>= motzkin_5459_2 0.0) (>= motzkin_5459_3 0.0) (>= motzkin_5459_4 0.0) (= (+ motzkin_5459_0 (* motzkin_5459_1 (- 1.0)) (* motzkin_5459_2 (+ (* (- 1.0) |liipp_11__ULTIMATE.start_nondet_#res|) 0.0))) 0.0) (= (+ (* motzkin_5459_0 (- 1.0)) motzkin_5459_1 (* motzkin_5459_2 (+ (* (- 1.0) liipp_11__ULTIMATE.start_nondet_~x~1) 0.0))) 0.0) (= (+ (* motzkin_5459_2 (+ (* (- 1.0) |liipp_11__ULTIMATE.start_main_#t~ret0|) 0.0)) (* motzkin_5459_3 (+ (* 1.0 |liipp_2__ULTIMATE.start_main_#t~ret0|) 0.0)) (* motzkin_5459_4 (+ (* 1.0 |liipp_3__ULTIMATE.start_main_#t~ret0|) 0.0))) 0.0) (= (+ (* motzkin_5459_2 (+ (* (- 1.0) |liipp_11__ULTIMATE.start_main_#res|) 0.0)) (* motzkin_5459_3 (+ (* 1.0 |liipp_2__ULTIMATE.start_main_#res|) 0.0)) (* motzkin_5459_4 (+ (* 1.0 |liipp_3__ULTIMATE.start_main_#res|) 0.0))) 0.0) (= (+ (* motzkin_5459_2 (+ (* (- 1.0) liipp_11__ULTIMATE.start_main_~y~2) 0.0)) (* motzkin_5459_3 (+ (* 1.0 liipp_2__ULTIMATE.start_main_~y~2) 0.0)) (* motzkin_5459_4 (+ (* 1.0 liipp_3__ULTIMATE.start_main_~y~2) 0.0))) 0.0) (= (+ (* motzkin_5459_2 (+ (* (- 1.0) liipp_11__ULTIMATE.start_main_~x~2) 0.0)) (* motzkin_5459_3 (+ (* 1.0 liipp_2__ULTIMATE.start_main_~x~2) 0.0)) (* motzkin_5459_4 (+ (* 1.0 liipp_3__ULTIMATE.start_main_~x~2) 0.0))) 0.0) (= (+ (* motzkin_5459_3 (+ (* 1.0 liipp_2__ULTIMATE.start_nondet_~x~1) 0.0)) (* motzkin_5459_4 (+ (* 1.0 liipp_3__ULTIMATE.start_nondet_~x~1) 0.0))) 0.0) (= (+ (* motzkin_5459_3 (+ (* 1.0 |liipp_2__ULTIMATE.start_nondet_#res|) 0.0)) (* motzkin_5459_4 (+ (* 1.0 |liipp_3__ULTIMATE.start_nondet_#res|) 0.0))) 0.0) (<= (+ (* motzkin_5459_2 (+ (* (- 1.0) liipp_11_c) 0.0)) (* motzkin_5459_3 (+ (* 1.0 liipp_2_c) 0.0)) (* motzkin_5459_4 (+ (* 1.0 liipp_3_c) 0.0))) 0.0) (or (< (* motzkin_5459_4 (+ (* 1.0 liipp_3_c) 0.0)) 0.0) (> (+ motzkin_5459_2 motzkin_5459_3) 0.0))))
(declare-fun liipp_17_replace_0 () Real)
(declare-fun liipp_17_replace_1 () Real)
(declare-fun liipp_17_replace_2 () Real)
(declare-fun liipp_17_replace_3 () Real)
(declare-fun motzkin_5460_0 () Real)
(declare-fun motzkin_5460_1 () Real)
(declare-fun motzkin_5460_2 () Real)
(declare-fun motzkin_5460_3 () Real)
(declare-fun motzkin_5460_4 () Real)
(declare-fun motzkin_5460_5 () Real)
(declare-fun motzkin_5460_6 () Real)
(declare-fun motzkin_5461_0 () Real)
(declare-fun motzkin_5461_1 () Real)
(declare-fun motzkin_5461_2 () Real)
(declare-fun motzkin_5461_3 () Real)
(declare-fun motzkin_5461_4 () Real)
(declare-fun motzkin_5461_5 () Real)
(declare-fun motzkin_5461_6 () Real)
(assert (and (>= motzkin_5460_0 0.0) (>= motzkin_5460_1 0.0) (>= motzkin_5460_2 0.0) (>= motzkin_5460_3 0.0) (>= motzkin_5460_4 0.0) (>= motzkin_5460_5 0.0) (>= motzkin_5460_6 0.0) (= (+ motzkin_5460_0 (* motzkin_5460_1 (- 1.0)) (* motzkin_5460_2 (- 1.0)) motzkin_5460_3 (* motzkin_5460_4 (+ (* (- 1.0) |liipp_6__ULTIMATE.start_main_#t~ret0|) 0.0))) 0.0) (= (+ motzkin_5460_2 (* motzkin_5460_3 (- 1.0)) (* motzkin_5460_4 (+ (* (- 1.0) |liipp_6__ULTIMATE.start_nondet_#res|) 0.0)) (* motzkin_5460_5 (+ (* 1.0 |liipp_10__ULTIMATE.start_nondet_#res|) 0.0)) (* motzkin_5460_6 (+ (* 1.0 |liipp_11__ULTIMATE.start_nondet_#res|) 0.0))) 0.0) (= (+ (* motzkin_5460_4 (+ (* (- 1.0) liipp_6__ULTIMATE.start_nondet_~x~1) 0.0)) (* motzkin_5460_5 (+ (* 1.0 liipp_10__ULTIMATE.start_nondet_~x~1) 0.0)) (* motzkin_5460_6 (+ (* 1.0 liipp_11__ULTIMATE.start_nondet_~x~1) 0.0))) 0.0) (= (+ (* motzkin_5460_4 (+ (* (- 1.0) |liipp_6__ULTIMATE.start_main_#res|) 0.0)) (* motzkin_5460_5 (+ (* 1.0 |liipp_10__ULTIMATE.start_main_#res|) 0.0)) (* motzkin_5460_6 (+ (* 1.0 |liipp_11__ULTIMATE.start_main_#res|) 0.0))) 0.0) (= (+ (* motzkin_5460_4 (+ (* (- 1.0) liipp_6__ULTIMATE.start_main_~y~2) 0.0)) (* motzkin_5460_5 (+ (* 1.0 liipp_10__ULTIMATE.start_main_~y~2) 0.0)) (* motzkin_5460_6 (+ (* 1.0 liipp_11__ULTIMATE.start_main_~y~2) 0.0))) 0.0) (= (+ (* motzkin_5460_4 (+ (* (- 1.0) liipp_6__ULTIMATE.start_main_~x~2) 0.0)) (* motzkin_5460_5 (+ (* 1.0 liipp_10__ULTIMATE.start_main_~x~2) 0.0)) (* motzkin_5460_6 (+ (* 1.0 liipp_11__ULTIMATE.start_main_~x~2) 0.0))) 0.0) (= (+ (* motzkin_5460_5 (+ (* 1.0 |liipp_10__ULTIMATE.start_main_#t~ret0|) 0.0)) (* motzkin_5460_6 (+ (* 1.0 |liipp_11__ULTIMATE.start_main_#t~ret0|) 0.0))) 0.0) (<= (+ (* motzkin_5460_0 2147483648.0) (* motzkin_5460_1 2147483647.0) (* motzkin_5460_4 (+ (* (- 1.0) liipp_6_c) 0.0)) (* motzkin_5460_5 (+ (* 1.0 liipp_10_c) 0.0)) (* motzkin_5460_6 (+ (* 1.0 liipp_11_c) 0.0))) 0.0) (or (< (+ (* motzkin_5460_0 2147483648.0) (* motzkin_5460_1 2147483647.0) (* motzkin_5460_4 (+ (* (- 1.0) liipp_6_c) 0.0)) (* motzkin_5460_6 (+ (* 1.0 liipp_11_c) 0.0))) 0.0) (> motzkin_5460_5 0.0)) (>= motzkin_5461_0 0.0) (>= motzkin_5461_1 0.0) (>= motzkin_5461_2 0.0) (>= motzkin_5461_3 0.0) (>= motzkin_5461_4 0.0) (>= motzkin_5461_5 0.0) (>= motzkin_5461_6 0.0) (= (+ motzkin_5461_0 (* motzkin_5461_1 (- 1.0)) (* motzkin_5461_2 (- 1.0)) motzkin_5461_3 (* motzkin_5461_4 (+ (* (- 1.0) |liipp_7__ULTIMATE.start_main_#t~ret0|) 0.0))) 0.0) (= (+ motzkin_5461_2 (* motzkin_5461_3 (- 1.0)) (* motzkin_5461_4 (+ (* (- 1.0) |liipp_7__ULTIMATE.start_nondet_#res|) 0.0)) (* motzkin_5461_5 (+ (* 1.0 |liipp_10__ULTIMATE.start_nondet_#res|) 0.0)) (* motzkin_5461_6 (+ (* 1.0 |liipp_11__ULTIMATE.start_nondet_#res|) 0.0))) 0.0) (= (+ (* motzkin_5461_4 (+ (* (- 1.0) liipp_7__ULTIMATE.start_nondet_~x~1) 0.0)) (* motzkin_5461_5 (+ (* 1.0 liipp_10__ULTIMATE.start_nondet_~x~1) 0.0)) (* motzkin_5461_6 (+ (* 1.0 liipp_11__ULTIMATE.start_nondet_~x~1) 0.0))) 0.0) (= (+ (* motzkin_5461_4 (+ (* (- 1.0) |liipp_7__ULTIMATE.start_main_#res|) 0.0)) (* motzkin_5461_5 (+ (* 1.0 |liipp_10__ULTIMATE.start_main_#res|) 0.0)) (* motzkin_5461_6 (+ (* 1.0 |liipp_11__ULTIMATE.start_main_#res|) 0.0))) 0.0) (= (+ (* motzkin_5461_4 (+ (* (- 1.0) liipp_7__ULTIMATE.start_main_~y~2) 0.0)) (* motzkin_5461_5 (+ (* 1.0 liipp_10__ULTIMATE.start_main_~y~2) 0.0)) (* motzkin_5461_6 (+ (* 1.0 liipp_11__ULTIMATE.start_main_~y~2) 0.0))) 0.0) (= (+ (* motzkin_5461_4 (+ (* (- 1.0) liipp_7__ULTIMATE.start_main_~x~2) 0.0)) (* motzkin_5461_5 (+ (* 1.0 liipp_10__ULTIMATE.start_main_~x~2) 0.0)) (* motzkin_5461_6 (+ (* 1.0 liipp_11__ULTIMATE.start_main_~x~2) 0.0))) 0.0) (= (+ (* motzkin_5461_5 (+ (* 1.0 |liipp_10__ULTIMATE.start_main_#t~ret0|) 0.0)) (* motzkin_5461_6 (+ (* 1.0 |liipp_11__ULTIMATE.start_main_#t~ret0|) 0.0))) 0.0) (<= (+ (* motzkin_5461_0 2147483648.0) (* motzkin_5461_1 2147483647.0) (* motzkin_5461_4 (+ (* (- 1.0) liipp_7_c) 0.0)) (* motzkin_5461_5 (+ (* 1.0 liipp_10_c) 0.0)) (* motzkin_5461_6 (+ (* 1.0 liipp_11_c) 0.0))) 0.0) (or (< (+ (* motzkin_5461_0 2147483648.0) (* motzkin_5461_1 2147483647.0) (* motzkin_5461_6 (+ (* 1.0 liipp_11_c) 0.0))) 0.0) (> (+ motzkin_5461_4 motzkin_5461_5) 0.0))))
(declare-fun liipp_18_replace_0 () Real)
(declare-fun liipp_18_replace_1 () Real)
(declare-fun liipp_18_replace_2 () Real)
(declare-fun liipp_18_replace_3 () Real)
(declare-fun liipp_18_replace_4 () Real)
(declare-fun motzkin_5462_0 () Real)
(declare-fun motzkin_5462_1 () Real)
(declare-fun motzkin_5462_2 () Real)
(declare-fun motzkin_5462_3 () Real)
(declare-fun motzkin_5462_4 () Real)
(declare-fun motzkin_5463_0 () Real)
(declare-fun motzkin_5463_1 () Real)
(declare-fun motzkin_5463_2 () Real)
(declare-fun motzkin_5463_3 () Real)
(declare-fun motzkin_5463_4 () Real)
(assert (and (>= motzkin_5462_0 0.0) (>= motzkin_5462_1 0.0) (>= motzkin_5462_2 0.0) (>= motzkin_5462_3 0.0) (>= motzkin_5462_4 0.0) (= (+ motzkin_5462_0 (* motzkin_5462_1 (- 1.0)) (* motzkin_5462_3 (+ (* 1.0 |liipp_6__ULTIMATE.start_main_#t~ret0|) 0.0)) (* motzkin_5462_4 (+ (* 1.0 |liipp_7__ULTIMATE.start_main_#t~ret0|) 0.0))) 0.0) (= (+ (* motzkin_5462_2 (+ (* (- 1.0) liipp_0__ULTIMATE.start_nondet_~x~1) 0.0)) (* motzkin_5462_3 (+ (* 1.0 liipp_6__ULTIMATE.start_nondet_~x~1) 0.0)) (* motzkin_5462_4 (+ (* 1.0 liipp_7__ULTIMATE.start_nondet_~x~1) 0.0))) 0.0) (= (* motzkin_5462_2 (+ (* (- 1.0) |liipp_0__ULTIMATE.start_main_#t~ret0|) 0.0)) 0.0) (= (+ (* motzkin_5462_2 (+ (* (- 1.0) |liipp_0__ULTIMATE.start_nondet_#res|) 0.0)) (* motzkin_5462_3 (+ (* 1.0 |liipp_6__ULTIMATE.start_nondet_#res|) 0.0)) (* motzkin_5462_4 (+ (* 1.0 |liipp_7__ULTIMATE.start_nondet_#res|) 0.0))) 0.0) (= (+ (* motzkin_5462_2 (+ (* (- 1.0) |liipp_0__ULTIMATE.start_main_#res|) 0.0)) (* motzkin_5462_3 (+ (* 1.0 |liipp_6__ULTIMATE.start_main_#res|) 0.0)) (* motzkin_5462_4 (+ (* 1.0 |liipp_7__ULTIMATE.start_main_#res|) 0.0))) 0.0) (= (+ (* motzkin_5462_2 (+ (* (- 1.0) liipp_0__ULTIMATE.start_main_~y~2) 0.0)) (* motzkin_5462_3 (+ (* 1.0 liipp_6__ULTIMATE.start_main_~y~2) 0.0)) (* motzkin_5462_4 (+ (* 1.0 liipp_7__ULTIMATE.start_main_~y~2) 0.0))) 0.0) (= (+ (* motzkin_5462_2 (+ (* (- 1.0) liipp_0__ULTIMATE.start_main_~x~2) 0.0)) (* motzkin_5462_3 (+ (* 1.0 liipp_6__ULTIMATE.start_main_~x~2) 0.0)) (* motzkin_5462_4 (+ (* 1.0 liipp_7__ULTIMATE.start_main_~x~2) 0.0))) 0.0) (<= (+ (* motzkin_5462_2 (+ (* (- 1.0) liipp_0_c) 0.0)) (* motzkin_5462_3 (+ (* 1.0 liipp_6_c) 0.0)) (* motzkin_5462_4 (+ (* 1.0 liipp_7_c) 0.0))) 0.0) (or (< (+ (* motzkin_5462_2 (+ (* (- 1.0) liipp_0_c) 0.0)) (* motzkin_5462_4 (+ (* 1.0 liipp_7_c) 0.0))) 0.0) (> motzkin_5462_3 0.0)) (>= motzkin_5463_0 0.0) (>= motzkin_5463_1 0.0) (>= motzkin_5463_2 0.0) (>= motzkin_5463_3 0.0) (>= motzkin_5463_4 0.0) (= (+ motzkin_5463_0 (* motzkin_5463_1 (- 1.0)) (* motzkin_5463_3 (+ (* 1.0 |liipp_6__ULTIMATE.start_main_#t~ret0|) 0.0)) (* motzkin_5463_4 (+ (* 1.0 |liipp_7__ULTIMATE.start_main_#t~ret0|) 0.0))) 0.0) (= (+ (* motzkin_5463_2 (+ (* (- 1.0) liipp_1__ULTIMATE.start_nondet_~x~1) 0.0)) (* motzkin_5463_3 (+ (* 1.0 liipp_6__ULTIMATE.start_nondet_~x~1) 0.0)) (* motzkin_5463_4 (+ (* 1.0 liipp_7__ULTIMATE.start_nondet_~x~1) 0.0))) 0.0) (= (* motzkin_5463_2 (+ (* (- 1.0) |liipp_1__ULTIMATE.start_main_#t~ret0|) 0.0)) 0.0) (= (+ (* motzkin_5463_2 (+ (* (- 1.0) |liipp_1__ULTIMATE.start_nondet_#res|) 0.0)) (* motzkin_5463_3 (+ (* 1.0 |liipp_6__ULTIMATE.start_nondet_#res|) 0.0)) (* motzkin_5463_4 (+ (* 1.0 |liipp_7__ULTIMATE.start_nondet_#res|) 0.0))) 0.0) (= (+ (* motzkin_5463_2 (+ (* (- 1.0) |liipp_1__ULTIMATE.start_main_#res|) 0.0)) (* motzkin_5463_3 (+ (* 1.0 |liipp_6__ULTIMATE.start_main_#res|) 0.0)) (* motzkin_5463_4 (+ (* 1.0 |liipp_7__ULTIMATE.start_main_#res|) 0.0))) 0.0) (= (+ (* motzkin_5463_2 (+ (* (- 1.0) liipp_1__ULTIMATE.start_main_~y~2) 0.0)) (* motzkin_5463_3 (+ (* 1.0 liipp_6__ULTIMATE.start_main_~y~2) 0.0)) (* motzkin_5463_4 (+ (* 1.0 liipp_7__ULTIMATE.start_main_~y~2) 0.0))) 0.0) (= (+ (* motzkin_5463_2 (+ (* (- 1.0) liipp_1__ULTIMATE.start_main_~x~2) 0.0)) (* motzkin_5463_3 (+ (* 1.0 liipp_6__ULTIMATE.start_main_~x~2) 0.0)) (* motzkin_5463_4 (+ (* 1.0 liipp_7__ULTIMATE.start_main_~x~2) 0.0))) 0.0) (<= (+ (* motzkin_5463_2 (+ (* (- 1.0) liipp_1_c) 0.0)) (* motzkin_5463_3 (+ (* 1.0 liipp_6_c) 0.0)) (* motzkin_5463_4 (+ (* 1.0 liipp_7_c) 0.0))) 0.0) (or (< (* motzkin_5463_4 (+ (* 1.0 liipp_7_c) 0.0)) 0.0) (> (+ motzkin_5463_2 motzkin_5463_3) 0.0))))
(declare-fun liipp_19_replace_0 () Real)
(declare-fun liipp_19_replace_1 () Real)
(declare-fun liipp_19_replace_2 () Real)
(declare-fun liipp_19_replace_3 () Real)
(declare-fun liipp_19_replace_4 () Real)
(declare-fun motzkin_5464_0 () Real)
(declare-fun motzkin_5464_1 () Real)
(declare-fun motzkin_5464_2 () Real)
(declare-fun motzkin_5464_3 () Real)
(declare-fun motzkin_5465_0 () Real)
(declare-fun motzkin_5465_1 () Real)
(declare-fun motzkin_5465_2 () Real)
(declare-fun motzkin_5465_3 () Real)
(declare-fun motzkin_5466_0 () Real)
(declare-fun motzkin_5466_1 () Real)
(declare-fun motzkin_5466_2 () Real)
(declare-fun motzkin_5466_3 () Real)
(declare-fun motzkin_5467_0 () Real)
(declare-fun motzkin_5467_1 () Real)
(declare-fun motzkin_5467_2 () Real)
(declare-fun motzkin_5467_3 () Real)
(assert (and (>= motzkin_5464_0 0.0) (>= motzkin_5464_1 0.0) (>= motzkin_5464_2 0.0) (>= motzkin_5464_3 0.0) (= (+ motzkin_5464_0 (* motzkin_5464_1 (+ (* (- 1.0) liipp_4__ULTIMATE.start_main_~x~2) 0.0)) (* motzkin_5464_2 (+ (* 1.0 liipp_0__ULTIMATE.start_main_~x~2) 0.0)) (* motzkin_5464_3 (+ (* 1.0 liipp_1__ULTIMATE.start_main_~x~2) 0.0))) 0.0) (= (+ (* motzkin_5464_1 (+ (* (- 1.0) liipp_4__ULTIMATE.start_nondet_~x~1) 0.0)) (* motzkin_5464_2 (+ (* 1.0 liipp_0__ULTIMATE.start_nondet_~x~1) 0.0)) (* motzkin_5464_3 (+ (* 1.0 liipp_1__ULTIMATE.start_nondet_~x~1) 0.0))) 0.0) (= (+ (* motzkin_5464_1 (+ (* (- 1.0) |liipp_4__ULTIMATE.start_main_#t~ret0|) 0.0)) (* motzkin_5464_2 (+ (* 1.0 |liipp_0__ULTIMATE.start_main_#t~ret0|) 0.0)) (* motzkin_5464_3 (+ (* 1.0 |liipp_1__ULTIMATE.start_main_#t~ret0|) 0.0))) 0.0) (= (+ (* motzkin_5464_1 (+ (* (- 1.0) |liipp_4__ULTIMATE.start_nondet_#res|) 0.0)) (* motzkin_5464_2 (+ (* 1.0 |liipp_0__ULTIMATE.start_nondet_#res|) 0.0)) (* motzkin_5464_3 (+ (* 1.0 |liipp_1__ULTIMATE.start_nondet_#res|) 0.0))) 0.0) (= (+ (* motzkin_5464_1 (+ (* (- 1.0) |liipp_4__ULTIMATE.start_main_#res|) 0.0)) (* motzkin_5464_2 (+ (* 1.0 |liipp_0__ULTIMATE.start_main_#res|) 0.0)) (* motzkin_5464_3 (+ (* 1.0 |liipp_1__ULTIMATE.start_main_#res|) 0.0))) 0.0) (= (+ (* motzkin_5464_1 (+ (* (- 1.0) liipp_4__ULTIMATE.start_main_~y~2) 0.0)) (* motzkin_5464_2 (+ (* 1.0 liipp_0__ULTIMATE.start_main_~y~2) 0.0)) (* motzkin_5464_3 (+ (* 1.0 liipp_1__ULTIMATE.start_main_~y~2) 0.0))) 0.0) (<= (+ (* motzkin_5464_1 (+ (* (- 1.0) liipp_4_c) 0.0)) (* motzkin_5464_2 (+ (* 1.0 liipp_0_c) 0.0)) (* motzkin_5464_3 (+ (* 1.0 liipp_1_c) 0.0))) 0.0) (or (< (+ (* motzkin_5464_1 (+ (* (- 1.0) liipp_4_c) 0.0)) (* motzkin_5464_3 (+ (* 1.0 liipp_1_c) 0.0))) 0.0) (> motzkin_5464_2 0.0)) (>= motzkin_5465_0 0.0) (>= motzkin_5465_1 0.0) (>= motzkin_5465_2 0.0) (>= motzkin_5465_3 0.0) (= (+ motzkin_5465_0 (* motzkin_5465_1 (+ (* (- 1.0) liipp_5__ULTIMATE.start_main_~x~2) 0.0)) (* motzkin_5465_2 (+ (* 1.0 liipp_0__ULTIMATE.start_main_~x~2) 0.0)) (* motzkin_5465_3 (+ (* 1.0 liipp_1__ULTIMATE.start_main_~x~2) 0.0))) 0.0) (= (+ (* motzkin_5465_1 (+ (* (- 1.0) liipp_5__ULTIMATE.start_nondet_~x~1) 0.0)) (* motzkin_5465_2 (+ (* 1.0 liipp_0__ULTIMATE.start_nondet_~x~1) 0.0)) (* motzkin_5465_3 (+ (* 1.0 liipp_1__ULTIMATE.start_nondet_~x~1) 0.0))) 0.0) (= (+ (* motzkin_5465_1 (+ (* (- 1.0) |liipp_5__ULTIMATE.start_main_#t~ret0|) 0.0)) (* motzkin_5465_2 (+ (* 1.0 |liipp_0__ULTIMATE.start_main_#t~ret0|) 0.0)) (* motzkin_5465_3 (+ (* 1.0 |liipp_1__ULTIMATE.start_main_#t~ret0|) 0.0))) 0.0) (= (+ (* motzkin_5465_1 (+ (* (- 1.0) |liipp_5__ULTIMATE.start_nondet_#res|) 0.0)) (* motzkin_5465_2 (+ (* 1.0 |liipp_0__ULTIMATE.start_nondet_#res|) 0.0)) (* motzkin_5465_3 (+ (* 1.0 |liipp_1__ULTIMATE.start_nondet_#res|) 0.0))) 0.0) (= (+ (* motzkin_5465_1 (+ (* (- 1.0) |liipp_5__ULTIMATE.start_main_#res|) 0.0)) (* motzkin_5465_2 (+ (* 1.0 |liipp_0__ULTIMATE.start_main_#res|) 0.0)) (* motzkin_5465_3 (+ (* 1.0 |liipp_1__ULTIMATE.start_main_#res|) 0.0))) 0.0) (= (+ (* motzkin_5465_1 (+ (* (- 1.0) liipp_5__ULTIMATE.start_main_~y~2) 0.0)) (* motzkin_5465_2 (+ (* 1.0 liipp_0__ULTIMATE.start_main_~y~2) 0.0)) (* motzkin_5465_3 (+ (* 1.0 liipp_1__ULTIMATE.start_main_~y~2) 0.0))) 0.0) (<= (+ (* motzkin_5465_1 (+ (* (- 1.0) liipp_5_c) 0.0)) (* motzkin_5465_2 (+ (* 1.0 liipp_0_c) 0.0)) (* motzkin_5465_3 (+ (* 1.0 liipp_1_c) 0.0))) 0.0) (or (< (* motzkin_5465_3 (+ (* 1.0 liipp_1_c) 0.0)) 0.0) (> (+ motzkin_5465_1 motzkin_5465_2) 0.0)) (>= motzkin_5466_0 0.0) (>= motzkin_5466_1 0.0) (>= motzkin_5466_2 0.0) (>= motzkin_5466_3 0.0) (= (+ (* motzkin_5466_0 (- 1.0)) (* motzkin_5466_1 (+ (* (- 1.0) liipp_4__ULTIMATE.start_main_~x~2) 0.0)) (* motzkin_5466_2 (+ (* 1.0 liipp_0__ULTIMATE.start_main_~x~2) 0.0)) (* motzkin_5466_3 (+ (* 1.0 liipp_1__ULTIMATE.start_main_~x~2) 0.0))) 0.0) (= (+ (* motzkin_5466_1 (+ (* (- 1.0) liipp_4__ULTIMATE.start_nondet_~x~1) 0.0)) (* motzkin_5466_2 (+ (* 1.0 liipp_0__ULTIMATE.start_nondet_~x~1) 0.0)) (* motzkin_5466_3 (+ (* 1.0 liipp_1__ULTIMATE.start_nondet_~x~1) 0.0))) 0.0) (= (+ (* motzkin_5466_1 (+ (* (- 1.0) |liipp_4__ULTIMATE.start_main_#t~ret0|) 0.0)) (* motzkin_5466_2 (+ (* 1.0 |liipp_0__ULTIMATE.start_main_#t~ret0|) 0.0)) (* motzkin_5466_3 (+ (* 1.0 |liipp_1__ULTIMATE.start_main_#t~ret0|) 0.0))) 0.0) (= (+ (* motzkin_5466_1 (+ (* (- 1.0) |liipp_4__ULTIMATE.start_nondet_#res|) 0.0)) (* motzkin_5466_2 (+ (* 1.0 |liipp_0__ULTIMATE.start_nondet_#res|) 0.0)) (* motzkin_5466_3 (+ (* 1.0 |liipp_1__ULTIMATE.start_nondet_#res|) 0.0))) 0.0) (= (+ (* motzkin_5466_1 (+ (* (- 1.0) |liipp_4__ULTIMATE.start_main_#res|) 0.0)) (* motzkin_5466_2 (+ (* 1.0 |liipp_0__ULTIMATE.start_main_#res|) 0.0)) (* motzkin_5466_3 (+ (* 1.0 |liipp_1__ULTIMATE.start_main_#res|) 0.0))) 0.0) (= (+ (* motzkin_5466_1 (+ (* (- 1.0) liipp_4__ULTIMATE.start_main_~y~2) 0.0)) (* motzkin_5466_2 (+ (* 1.0 liipp_0__ULTIMATE.start_main_~y~2) 0.0)) (* motzkin_5466_3 (+ (* 1.0 liipp_1__ULTIMATE.start_main_~y~2) 0.0))) 0.0) (<= (+ (* motzkin_5466_0 (- 2.0)) (* motzkin_5466_1 (+ (* (- 1.0) liipp_4_c) 0.0)) (* motzkin_5466_2 (+ (* 1.0 liipp_0_c) 0.0)) (* motzkin_5466_3 (+ (* 1.0 liipp_1_c) 0.0))) 0.0) (or (< (+ (* motzkin_5466_0 (- 2.0)) (* motzkin_5466_1 (+ (* (- 1.0) liipp_4_c) 0.0)) (* motzkin_5466_3 (+ (* 1.0 liipp_1_c) 0.0))) 0.0) (> motzkin_5466_2 0.0)) (>= motzkin_5467_0 0.0) (>= motzkin_5467_1 0.0) (>= motzkin_5467_2 0.0) (>= motzkin_5467_3 0.0) (= (+ (* motzkin_5467_0 (- 1.0)) (* motzkin_5467_1 (+ (* (- 1.0) liipp_5__ULTIMATE.start_main_~x~2) 0.0)) (* motzkin_5467_2 (+ (* 1.0 liipp_0__ULTIMATE.start_main_~x~2) 0.0)) (* motzkin_5467_3 (+ (* 1.0 liipp_1__ULTIMATE.start_main_~x~2) 0.0))) 0.0) (= (+ (* motzkin_5467_1 (+ (* (- 1.0) liipp_5__ULTIMATE.start_nondet_~x~1) 0.0)) (* motzkin_5467_2 (+ (* 1.0 liipp_0__ULTIMATE.start_nondet_~x~1) 0.0)) (* motzkin_5467_3 (+ (* 1.0 liipp_1__ULTIMATE.start_nondet_~x~1) 0.0))) 0.0) (= (+ (* motzkin_5467_1 (+ (* (- 1.0) |liipp_5__ULTIMATE.start_main_#t~ret0|) 0.0)) (* motzkin_5467_2 (+ (* 1.0 |liipp_0__ULTIMATE.start_main_#t~ret0|) 0.0)) (* motzkin_5467_3 (+ (* 1.0 |liipp_1__ULTIMATE.start_main_#t~ret0|) 0.0))) 0.0) (= (+ (* motzkin_5467_1 (+ (* (- 1.0) |liipp_5__ULTIMATE.start_nondet_#res|) 0.0)) (* motzkin_5467_2 (+ (* 1.0 |liipp_0__ULTIMATE.start_nondet_#res|) 0.0)) (* motzkin_5467_3 (+ (* 1.0 |liipp_1__ULTIMATE.start_nondet_#res|) 0.0))) 0.0) (= (+ (* motzkin_5467_1 (+ (* (- 1.0) |liipp_5__ULTIMATE.start_main_#res|) 0.0)) (* motzkin_5467_2 (+ (* 1.0 |liipp_0__ULTIMATE.start_main_#res|) 0.0)) (* motzkin_5467_3 (+ (* 1.0 |liipp_1__ULTIMATE.start_main_#res|) 0.0))) 0.0) (= (+ (* motzkin_5467_1 (+ (* (- 1.0) liipp_5__ULTIMATE.start_main_~y~2) 0.0)) (* motzkin_5467_2 (+ (* 1.0 liipp_0__ULTIMATE.start_main_~y~2) 0.0)) (* motzkin_5467_3 (+ (* 1.0 liipp_1__ULTIMATE.start_main_~y~2) 0.0))) 0.0) (<= (+ (* motzkin_5467_0 (- 2.0)) (* motzkin_5467_1 (+ (* (- 1.0) liipp_5_c) 0.0)) (* motzkin_5467_2 (+ (* 1.0 liipp_0_c) 0.0)) (* motzkin_5467_3 (+ (* 1.0 liipp_1_c) 0.0))) 0.0) (or (< (+ (* motzkin_5467_0 (- 2.0)) (* motzkin_5467_3 (+ (* 1.0 liipp_1_c) 0.0))) 0.0) (> (+ motzkin_5467_1 motzkin_5467_2) 0.0))))
(declare-fun liipp_20_replace_0 () Real)
(declare-fun liipp_20_replace_1 () Real)
(declare-fun liipp_20_replace_2 () Real)
(declare-fun liipp_20_replace_3 () Real)
(declare-fun liipp_20_replace_4 () Real)
(declare-fun motzkin_5468_0 () Real)
(declare-fun motzkin_5468_1 () Real)
(declare-fun motzkin_5468_2 () Real)
(declare-fun motzkin_5468_3 () Real)
(assert (and (>= motzkin_5468_0 0.0) (>= motzkin_5468_1 0.0) (>= motzkin_5468_2 0.0) (>= motzkin_5468_3 0.0) (= (+ (* motzkin_5468_0 (- 1.0)) motzkin_5468_1 (* motzkin_5468_2 (+ (* 1.0 liipp_4__ULTIMATE.start_main_~y~2) 0.0)) (* motzkin_5468_3 (+ (* 1.0 liipp_5__ULTIMATE.start_main_~y~2) 0.0))) 0.0) (= (+ (* motzkin_5468_2 (+ (* 1.0 liipp_4__ULTIMATE.start_nondet_~x~1) 0.0)) (* motzkin_5468_3 (+ (* 1.0 liipp_5__ULTIMATE.start_nondet_~x~1) 0.0))) 0.0) (= (+ (* motzkin_5468_2 (+ (* 1.0 |liipp_4__ULTIMATE.start_main_#t~ret0|) 0.0)) (* motzkin_5468_3 (+ (* 1.0 |liipp_5__ULTIMATE.start_main_#t~ret0|) 0.0))) 0.0) (= (+ (* motzkin_5468_2 (+ (* 1.0 |liipp_4__ULTIMATE.start_nondet_#res|) 0.0)) (* motzkin_5468_3 (+ (* 1.0 |liipp_5__ULTIMATE.start_nondet_#res|) 0.0))) 0.0) (= (+ (* motzkin_5468_2 (+ (* 1.0 |liipp_4__ULTIMATE.start_main_#res|) 0.0)) (* motzkin_5468_3 (+ (* 1.0 |liipp_5__ULTIMATE.start_main_#res|) 0.0))) 0.0) (= (+ (* motzkin_5468_2 (+ (* 1.0 liipp_4__ULTIMATE.start_main_~x~2) 0.0)) (* motzkin_5468_3 (+ (* 1.0 liipp_5__ULTIMATE.start_main_~x~2) 0.0))) 0.0) (<= (+ (* motzkin_5468_0 (- 1.0)) motzkin_5468_1 (* motzkin_5468_2 (+ (* 1.0 liipp_4_c) 0.0)) (* motzkin_5468_3 (+ (* 1.0 liipp_5_c) 0.0))) 0.0) (or (< (+ (* motzkin_5468_0 (- 1.0)) motzkin_5468_1 (* motzkin_5468_3 (+ (* 1.0 liipp_5_c) 0.0))) 0.0) (> motzkin_5468_2 0.0))))
(check-sat)
(exit)
